(set-logic QF_LRA)
(declare-fun parameter_load_at_depot_pallet@1 () Real)
(declare-fun fluent_robot_at_r0_p0@0 () Bool)
(declare-fun fluent_robot_at_r0_p1@0 () Bool)
(declare-fun fluent_robot_at_r0_p2@0 () Bool)
(declare-fun fluent_robot_at_r0_p3@0 () Bool)
(declare-fun fluent_robot_free_r0@0 () Bool)
(declare-fun fluent_pallet_at_plt0_p0@0 () Bool)
(declare-fun fluent_pallet_at_plt0_p1@0 () Bool)
(declare-fun fluent_pallet_at_plt0_p2@0 () Bool)
(declare-fun fluent_pallet_at_plt0_p3@0 () Bool)
(declare-fun act_unload_at_depot@1 () Bool)
(declare-fun fluent_battery_level_r0@0 () Real)
(declare-fun parameter_unload_at_depot_pos@1 () Real)
(declare-fun parameter_unload_at_depot_r@1 () Real)
(declare-fun fluent_position_free_p0@0 () Bool)
(declare-fun fluent_position_free_p1@0 () Bool)
(declare-fun fluent_position_free_p2@0 () Bool)
(declare-fun fluent_position_free_p3@0 () Bool)
(declare-fun parameter_unload_at_depot_pallet@1 () Real)
(declare-fun fluent_robot_has_r0_plt0@0 () Bool)
(declare-fun fluent_ready_plt0_p0_t0@0 () Bool)
(declare-fun fluent_ready_plt0_p1_t0@0 () Bool)
(declare-fun fluent_ready_plt0_p2_t0@0 () Bool)
(declare-fun fluent_ready_plt0_p3_t0@0 () Bool)
(declare-fun fluent_ready_plt0_p0_t1@0 () Bool)
(declare-fun fluent_ready_plt0_p1_t1@0 () Bool)
(declare-fun fluent_ready_plt0_p2_t1@0 () Bool)
(declare-fun fluent_ready_plt0_p3_t1@0 () Bool)
(declare-fun dur_make_treatment@1 () Real)
(declare-fun t@1 () Real)
(declare-fun fluent_treated_plt0_t0@0 () Bool)
(declare-fun fluent_treated_plt0_t1@0 () Bool)
(declare-fun parameter_make_treatment_t@1 () Real)
(declare-fun parameter_make_treatment_pallet@1 () Real)
(declare-fun act_move@1 () Bool)
(declare-fun parameter_move_topos@1 () Real)
(declare-fun parameter_make_treatment_r@1 () Real)
(declare-fun parameter_make_treatment_pos@1 () Real)
(declare-fun parameter_move_frompos@1 () Real)
(declare-fun parameter_move_r@1 () Real)
(declare-fun fluent_robot_at_r0_p0@1 () Bool)
(declare-fun fluent_robot_at_r0_p1@1 () Bool)
(declare-fun fluent_robot_at_r0_p2@1 () Bool)
(declare-fun fluent_robot_at_r0_p3@1 () Bool)
(declare-fun fluent_battery_level_r0@1 () Real)
(declare-fun act_make_treatment@1 () Bool)
(declare-fun act_load@1 () Bool)
(declare-fun parameter_load_t@1 () Real)
(declare-fun parameter_load_pos@1 () Real)
(declare-fun parameter_load_pallet@1 () Real)
(declare-fun parameter_load_r@1 () Real)
(declare-fun fluent_robot_free_r0@1 () Bool)
(declare-fun fluent_ready_plt0_p0_t0@1 () Bool)
(declare-fun fluent_ready_plt0_p1_t0@1 () Bool)
(declare-fun fluent_ready_plt0_p2_t0@1 () Bool)
(declare-fun fluent_ready_plt0_p3_t0@1 () Bool)
(declare-fun fluent_ready_plt0_p0_t1@1 () Bool)
(declare-fun fluent_ready_plt0_p1_t1@1 () Bool)
(declare-fun fluent_ready_plt0_p2_t1@1 () Bool)
(declare-fun fluent_ready_plt0_p3_t1@1 () Bool)
(declare-fun fluent_pallet_at_plt0_p0@1 () Bool)
(declare-fun fluent_pallet_at_plt0_p1@1 () Bool)
(declare-fun fluent_pallet_at_plt0_p2@1 () Bool)
(declare-fun fluent_pallet_at_plt0_p3@1 () Bool)
(declare-fun fluent_robot_has_r0_plt0@1 () Bool)
(declare-fun fluent_treated_plt0_t0@1 () Bool)
(declare-fun fluent_treated_plt0_t1@1 () Bool)
(declare-fun fluent_position_free_p0@1 () Bool)
(declare-fun fluent_position_free_p1@1 () Bool)
(declare-fun fluent_position_free_p2@1 () Bool)
(declare-fun fluent_position_free_p3@1 () Bool)
(declare-fun act_load_at_depot@1 () Bool)
(declare-fun parameter_load_at_depot_pos@1 () Real)
(declare-fun parameter_load_at_depot_r@1 () Real)
(assert (let ((.def_0 (= parameter_load_at_depot_r@1 0.0))) (let ((.def_1 (= parameter_load_at_depot_pos@1 4.0))) (let ((.def_2 (= parameter_load_at_depot_pos@1 3.0))) (let ((.def_3 (= parameter_load_at_depot_pos@1 2.0))) (let ((.def_4 (= parameter_load_at_depot_pos@1 1.0))) (let ((.def_5 (or .def_4 .def_3 .def_2 .def_1))) (let ((.def_6 (= parameter_move_r@1 0.0))) (let ((.def_7 (= parameter_move_frompos@1 4.0))) (let ((.def_8 (= parameter_move_frompos@1 3.0))) (let ((.def_9 (= parameter_move_frompos@1 2.0))) (let ((.def_10 (= parameter_move_frompos@1 1.0))) (let ((.def_11 (or .def_10 .def_9 .def_8 .def_7))) (let ((.def_12 (= parameter_make_treatment_pos@1 4.0))) (let ((.def_13 (= parameter_make_treatment_pos@1 3.0))) (let ((.def_14 (= parameter_make_treatment_pos@1 2.0))) (let ((.def_15 (= parameter_make_treatment_pos@1 1.0))) (let ((.def_16 (or .def_15 .def_14 .def_13 .def_12))) (let ((.def_17 (= parameter_move_topos@1 4.0))) (let ((.def_18 (= parameter_move_topos@1 3.0))) (let ((.def_19 (= parameter_move_topos@1 2.0))) (let ((.def_20 (= parameter_move_topos@1 1.0))) (let ((.def_21 (or .def_20 .def_19 .def_18 .def_17))) (let ((.def_22 (= parameter_make_treatment_r@1 0.0))) (let ((.def_23 (= parameter_make_treatment_pallet@1 5.0))) (let ((.def_24 (= parameter_make_treatment_t@1 7.0))) (let ((.def_25 (= parameter_make_treatment_t@1 6.0))) (let ((.def_26 (or .def_25 .def_24))) (let ((.def_27 (= parameter_load_r@1 0.0))) (let ((.def_28 (= parameter_unload_at_depot_pallet@1 5.0))) (let ((.def_29 (= parameter_load_pallet@1 5.0))) (let ((.def_30 (= parameter_load_pos@1 4.0))) (let ((.def_31 (= parameter_load_pos@1 3.0))) (let ((.def_32 (= parameter_load_pos@1 2.0))) (let ((.def_33 (= parameter_load_pos@1 1.0))) (let ((.def_34 (or .def_33 .def_32 .def_31 .def_30))) (let ((.def_35 (= parameter_unload_at_depot_r@1 0.0))) (let ((.def_36 (= parameter_load_t@1 7.0))) (let ((.def_37 (= parameter_load_t@1 6.0))) (let ((.def_38 (or .def_37 .def_36))) (let ((.def_39 (= parameter_unload_at_depot_pos@1 4.0))) (let ((.def_40 (= parameter_unload_at_depot_pos@1 3.0))) (let ((.def_41 (= parameter_unload_at_depot_pos@1 2.0))) (let ((.def_42 (= parameter_unload_at_depot_pos@1 1.0))) (let ((.def_43 (or .def_42 .def_41 .def_40 .def_39))) (let ((.def_44 (<= fluent_battery_level_r0@1 100.0))) (let ((.def_45 (<= 0.0 fluent_battery_level_r0@1))) (let ((.def_46 (= parameter_load_at_depot_pallet@1 5.0))) (let ((.def_47 (and act_move@1 true .def_6))) (let ((.def_48 (= fluent_battery_level_r0@0 fluent_battery_level_r0@1))) (let ((.def_49 (not .def_48))) (let ((.def_50 (=> .def_49 .def_47))) (let ((.def_51 (and act_make_treatment@1 true .def_23 .def_12))) (let ((.def_52 (and act_unload_at_depot@1 true .def_28 .def_39))) (let ((.def_53 (and .def_52 .def_51))) (let ((.def_54 (not .def_53))) (let ((.def_55 (and act_load_at_depot@1 true .def_46 .def_1))) (let ((.def_56 (and .def_55 .def_51))) (let ((.def_57 (not .def_56))) (let ((.def_58 (and .def_55 .def_52))) (let ((.def_59 (not .def_58))) (let ((.def_60 (and act_load@1 true .def_29 .def_30))) (let ((.def_61 (and .def_60 .def_51))) (let ((.def_62 (not .def_61))) (let ((.def_63 (and .def_60 .def_52))) (let ((.def_64 (not .def_63))) (let ((.def_65 (and .def_60 .def_55))) (let ((.def_66 (not .def_65))) (let ((.def_67 (or .def_60 .def_55 .def_52 .def_51))) (let ((.def_68 (= fluent_pallet_at_plt0_p3@0 fluent_pallet_at_plt0_p3@1))) (let ((.def_69 (not .def_68))) (let ((.def_70 (=> .def_69 .def_67))) (let ((.def_71 (and act_make_treatment@1 true .def_23 .def_13))) (let ((.def_72 (and act_unload_at_depot@1 true .def_28 .def_40))) (let ((.def_73 (and .def_72 .def_71))) (let ((.def_74 (not .def_73))) (let ((.def_75 (and act_load_at_depot@1 true .def_46 .def_2))) (let ((.def_76 (and .def_75 .def_71))) (let ((.def_77 (not .def_76))) (let ((.def_78 (and .def_75 .def_72))) (let ((.def_79 (not .def_78))) (let ((.def_80 (and act_load@1 true .def_29 .def_31))) (let ((.def_81 (and .def_80 .def_71))) (let ((.def_82 (not .def_81))) (let ((.def_83 (and .def_80 .def_72))) (let ((.def_84 (not .def_83))) (let ((.def_85 (and .def_80 .def_75))) (let ((.def_86 (not .def_85))) (let ((.def_87 (or .def_80 .def_75 .def_72 .def_71))) (let ((.def_88 (= fluent_pallet_at_plt0_p2@0 fluent_pallet_at_plt0_p2@1))) (let ((.def_89 (not .def_88))) (let ((.def_90 (=> .def_89 .def_87))) (let ((.def_91 (and act_make_treatment@1 true .def_23 .def_14))) (let ((.def_92 (and act_unload_at_depot@1 true .def_28 .def_41))) (let ((.def_93 (and .def_92 .def_91))) (let ((.def_94 (not .def_93))) (let ((.def_95 (and act_load_at_depot@1 true .def_46 .def_3))) (let ((.def_96 (and .def_95 .def_91))) (let ((.def_97 (not .def_96))) (let ((.def_98 (and .def_95 .def_92))) (let ((.def_99 (not .def_98))) (let ((.def_100 (and act_load@1 true .def_29 .def_32))) (let ((.def_101 (and .def_100 .def_91))) (let ((.def_102 (not .def_101))) (let ((.def_103 (and .def_100 .def_92))) (let ((.def_104 (not .def_103))) (let ((.def_105 (and .def_100 .def_95))) (let ((.def_106 (not .def_105))) (let ((.def_107 (or .def_100 .def_95 .def_92 .def_91))) (let ((.def_108 (= fluent_pallet_at_plt0_p1@0 fluent_pallet_at_plt0_p1@1))) (let ((.def_109 (not .def_108))) (let ((.def_110 (=> .def_109 .def_107))) (let ((.def_111 (and act_make_treatment@1 true .def_23 .def_15))) (let ((.def_112 (and act_unload_at_depot@1 true .def_28 .def_42))) (let ((.def_113 (and .def_112 .def_111))) (let ((.def_114 (not .def_113))) (let ((.def_115 (and act_load_at_depot@1 true .def_46 .def_4))) (let ((.def_116 (and .def_115 .def_111))) (let ((.def_117 (not .def_116))) (let ((.def_118 (and .def_115 .def_112))) (let ((.def_119 (not .def_118))) (let ((.def_120 (and act_load@1 true .def_29 .def_33))) (let ((.def_121 (and .def_120 .def_111))) (let ((.def_122 (not .def_121))) (let ((.def_123 (and .def_120 .def_112))) (let ((.def_124 (not .def_123))) (let ((.def_125 (and .def_120 .def_115))) (let ((.def_126 (not .def_125))) (let ((.def_127 (or .def_120 .def_115 .def_112 .def_111))) (let ((.def_128 (= fluent_pallet_at_plt0_p0@0 fluent_pallet_at_plt0_p0@1))) (let ((.def_129 (not .def_128))) (let ((.def_130 (=> .def_129 .def_127))) (let ((.def_131 (and act_load@1 true .def_29 .def_36))) (let ((.def_132 (= fluent_treated_plt0_t1@0 fluent_treated_plt0_t1@1))) (let ((.def_133 (not .def_132))) (let ((.def_134 (=> .def_133 .def_131))) (let ((.def_135 (and act_load@1 true .def_29 .def_37))) (let ((.def_136 (= fluent_treated_plt0_t0@0 fluent_treated_plt0_t0@1))) (let ((.def_137 (not .def_136))) (let ((.def_138 (=> .def_137 .def_135))) (let ((.def_139 (and act_make_treatment@1 true .def_12))) (let ((.def_140 (and act_load@1 true .def_30))) (let ((.def_141 (and .def_140 .def_139))) (let ((.def_142 (not .def_141))) (let ((.def_143 (or .def_140 .def_139))) (let ((.def_144 (= fluent_position_free_p3@0 fluent_position_free_p3@1))) (let ((.def_145 (not .def_144))) (let ((.def_146 (=> .def_145 .def_143))) (let ((.def_147 (and act_make_treatment@1 true .def_13))) (let ((.def_148 (and act_load@1 true .def_31))) (let ((.def_149 (and .def_148 .def_147))) (let ((.def_150 (not .def_149))) (let ((.def_151 (or .def_148 .def_147))) (let ((.def_152 (= fluent_position_free_p2@0 fluent_position_free_p2@1))) (let ((.def_153 (not .def_152))) (let ((.def_154 (=> .def_153 .def_151))) (let ((.def_155 (and act_make_treatment@1 true .def_14))) (let ((.def_156 (and act_load@1 true .def_32))) (let ((.def_157 (and .def_156 .def_155))) (let ((.def_158 (not .def_157))) (let ((.def_159 (or .def_156 .def_155))) (let ((.def_160 (= fluent_position_free_p1@0 fluent_position_free_p1@1))) (let ((.def_161 (not .def_160))) (let ((.def_162 (=> .def_161 .def_159))) (let ((.def_163 (and act_make_treatment@1 true .def_15))) (let ((.def_164 (and act_load@1 true .def_33))) (let ((.def_165 (and .def_164 .def_163))) (let ((.def_166 (not .def_165))) (let ((.def_167 (or .def_164 .def_163))) (let ((.def_168 (= fluent_position_free_p0@0 fluent_position_free_p0@1))) (let ((.def_169 (not .def_168))) (let ((.def_170 (=> .def_169 .def_167))) (let ((.def_171 (+ t@1 10.0))) (let ((.def_172 (= t@1 .def_171))) (let ((.def_173 (and act_make_treatment@1 true .def_172 .def_23 .def_12 .def_24))) (let ((.def_174 (and act_load@1 true .def_29 .def_30 .def_36))) (let ((.def_175 (and .def_174 .def_173))) (let ((.def_176 (not .def_175))) (let ((.def_177 (or .def_174 .def_173))) (let ((.def_178 (= fluent_ready_plt0_p3_t1@0 fluent_ready_plt0_p3_t1@1))) (let ((.def_179 (not .def_178))) (let ((.def_180 (=> .def_179 .def_177))) (let ((.def_181 (and act_make_treatment@1 true .def_172 .def_23 .def_13 .def_24))) (let ((.def_182 (and act_load@1 true .def_29 .def_31 .def_36))) (let ((.def_183 (and .def_182 .def_181))) (let ((.def_184 (not .def_183))) (let ((.def_185 (or .def_182 .def_181))) (let ((.def_186 (= fluent_ready_plt0_p2_t1@0 fluent_ready_plt0_p2_t1@1))) (let ((.def_187 (not .def_186))) (let ((.def_188 (=> .def_187 .def_185))) (let ((.def_189 (and act_make_treatment@1 true .def_172 .def_23 .def_14 .def_24))) (let ((.def_190 (and act_load@1 true .def_29 .def_32 .def_36))) (let ((.def_191 (and .def_190 .def_189))) (let ((.def_192 (not .def_191))) (let ((.def_193 (or .def_190 .def_189))) (let ((.def_194 (= fluent_ready_plt0_p1_t1@0 fluent_ready_plt0_p1_t1@1))) (let ((.def_195 (not .def_194))) (let ((.def_196 (=> .def_195 .def_193))) (let ((.def_197 (and act_make_treatment@1 true .def_172 .def_23 .def_15 .def_24))) (let ((.def_198 (and act_load@1 true .def_29 .def_33 .def_36))) (let ((.def_199 (and .def_198 .def_197))) (let ((.def_200 (not .def_199))) (let ((.def_201 (or .def_198 .def_197))) (let ((.def_202 (= fluent_ready_plt0_p0_t1@0 fluent_ready_plt0_p0_t1@1))) (let ((.def_203 (not .def_202))) (let ((.def_204 (=> .def_203 .def_201))) (let ((.def_205 (and act_make_treatment@1 true .def_172 .def_23 .def_12 .def_25))) (let ((.def_206 (and act_load@1 true .def_29 .def_30 .def_37))) (let ((.def_207 (and .def_206 .def_205))) (let ((.def_208 (not .def_207))) (let ((.def_209 (or .def_206 .def_205))) (let ((.def_210 (= fluent_ready_plt0_p3_t0@0 fluent_ready_plt0_p3_t0@1))) (let ((.def_211 (not .def_210))) (let ((.def_212 (=> .def_211 .def_209))) (let ((.def_213 (and act_make_treatment@1 true .def_172 .def_23 .def_13 .def_25))) (let ((.def_214 (and act_load@1 true .def_29 .def_31 .def_37))) (let ((.def_215 (and .def_214 .def_213))) (let ((.def_216 (not .def_215))) (let ((.def_217 (or .def_214 .def_213))) (let ((.def_218 (= fluent_ready_plt0_p2_t0@0 fluent_ready_plt0_p2_t0@1))) (let ((.def_219 (not .def_218))) (let ((.def_220 (=> .def_219 .def_217))) (let ((.def_221 (and act_make_treatment@1 true .def_172 .def_23 .def_14 .def_25))) (let ((.def_222 (and act_load@1 true .def_29 .def_32 .def_37))) (let ((.def_223 (and .def_222 .def_221))) (let ((.def_224 (not .def_223))) (let ((.def_225 (or .def_222 .def_221))) (let ((.def_226 (= fluent_ready_plt0_p1_t0@0 fluent_ready_plt0_p1_t0@1))) (let ((.def_227 (not .def_226))) (let ((.def_228 (=> .def_227 .def_225))) (let ((.def_229 (and act_make_treatment@1 true .def_172 .def_23 .def_15 .def_25))) (let ((.def_230 (and act_load@1 true .def_29 .def_33 .def_37))) (let ((.def_231 (and .def_230 .def_229))) (let ((.def_232 (not .def_231))) (let ((.def_233 (or .def_230 .def_229))) (let ((.def_234 (= fluent_ready_plt0_p0_t0@0 fluent_ready_plt0_p0_t0@1))) (let ((.def_235 (not .def_234))) (let ((.def_236 (=> .def_235 .def_233))) (let ((.def_237 (and act_make_treatment@1 true .def_22 .def_23))) (let ((.def_238 (and act_unload_at_depot@1 true .def_35 .def_28))) (let ((.def_239 (and .def_238 .def_237))) (let ((.def_240 (not .def_239))) (let ((.def_241 (and act_load_at_depot@1 true .def_0 .def_46))) (let ((.def_242 (and .def_241 .def_237))) (let ((.def_243 (not .def_242))) (let ((.def_244 (and .def_241 .def_238))) (let ((.def_245 (not .def_244))) (let ((.def_246 (and act_load@1 true .def_27 .def_29))) (let ((.def_247 (and .def_246 .def_237))) (let ((.def_248 (not .def_247))) (let ((.def_249 (and .def_246 .def_238))) (let ((.def_250 (not .def_249))) (let ((.def_251 (and .def_246 .def_241))) (let ((.def_252 (not .def_251))) (let ((.def_253 (or .def_246 .def_241 .def_238 .def_237))) (let ((.def_254 (= fluent_robot_has_r0_plt0@0 fluent_robot_has_r0_plt0@1))) (let ((.def_255 (not .def_254))) (let ((.def_256 (=> .def_255 .def_253))) (let ((.def_257 (and act_make_treatment@1 true .def_22))) (let ((.def_258 (and act_unload_at_depot@1 true .def_35))) (let ((.def_259 (and .def_258 .def_257))) (let ((.def_260 (not .def_259))) (let ((.def_261 (and act_load_at_depot@1 true .def_0))) (let ((.def_262 (and .def_261 .def_257))) (let ((.def_263 (not .def_262))) (let ((.def_264 (and .def_261 .def_258))) (let ((.def_265 (not .def_264))) (let ((.def_266 (and act_load@1 true .def_27))) (let ((.def_267 (and .def_266 .def_257))) (let ((.def_268 (not .def_267))) (let ((.def_269 (and .def_266 .def_258))) (let ((.def_270 (not .def_269))) (let ((.def_271 (and .def_266 .def_261))) (let ((.def_272 (not .def_271))) (let ((.def_273 (or .def_266 .def_261 .def_258 .def_257))) (let ((.def_274 (= fluent_robot_free_r0@0 fluent_robot_free_r0@1))) (let ((.def_275 (not .def_274))) (let ((.def_276 (=> .def_275 .def_273))) (let ((.def_277 (and act_move@1 true .def_6 .def_7))) (let ((.def_278 (and act_move@1 true .def_6 .def_17))) (let ((.def_279 (and .def_278 .def_277))) (let ((.def_280 (not .def_279))) (let ((.def_281 (or .def_278 .def_277))) (let ((.def_282 (= fluent_robot_at_r0_p3@0 fluent_robot_at_r0_p3@1))) (let ((.def_283 (not .def_282))) (let ((.def_284 (=> .def_283 .def_281))) (let ((.def_285 (and act_move@1 true .def_6 .def_8))) (let ((.def_286 (and act_move@1 true .def_6 .def_18))) (let ((.def_287 (and .def_286 .def_285))) (let ((.def_288 (not .def_287))) (let ((.def_289 (or .def_286 .def_285))) (let ((.def_290 (= fluent_robot_at_r0_p2@0 fluent_robot_at_r0_p2@1))) (let ((.def_291 (not .def_290))) (let ((.def_292 (=> .def_291 .def_289))) (let ((.def_293 (and act_move@1 true .def_6 .def_9))) (let ((.def_294 (and act_move@1 true .def_6 .def_19))) (let ((.def_295 (and .def_294 .def_293))) (let ((.def_296 (not .def_295))) (let ((.def_297 (or .def_294 .def_293))) (let ((.def_298 (= fluent_robot_at_r0_p1@0 fluent_robot_at_r0_p1@1))) (let ((.def_299 (not .def_298))) (let ((.def_300 (=> .def_299 .def_297))) (let ((.def_301 (and act_move@1 true .def_6 .def_10))) (let ((.def_302 (and act_move@1 true .def_6 .def_20))) (let ((.def_303 (and .def_302 .def_301))) (let ((.def_304 (not .def_303))) (let ((.def_305 (or .def_302 .def_301))) (let ((.def_306 (= fluent_robot_at_r0_p0@0 fluent_robot_at_r0_p0@1))) (let ((.def_307 (not .def_306))) (let ((.def_308 (=> .def_307 .def_305))) (let ((.def_309 (and .def_308 .def_304 .def_300 .def_296 .def_292 .def_288 .def_284 .def_280 .def_276 .def_272 .def_270 .def_268 .def_265 .def_263 .def_260 .def_256 .def_252 .def_250 .def_248 .def_245 .def_243 .def_240 .def_236 .def_232 .def_228 .def_224 .def_220 .def_216 .def_212 .def_208 .def_204 .def_200 .def_196 .def_192 .def_188 .def_184 .def_180 .def_176 .def_170 .def_166 .def_162 .def_158 .def_154 .def_150 .def_146 .def_142 .def_138 .def_134 .def_130 .def_126 .def_124 .def_122 .def_119 .def_117 .def_114 .def_110 .def_106 .def_104 .def_102 .def_99 .def_97 .def_94 .def_90 .def_86 .def_84 .def_82 .def_79 .def_77 .def_74 .def_70 .def_66 .def_64 .def_62 .def_59 .def_57 .def_54 .def_50))) (let ((.def_310 (= t@1 t@1))) (let ((.def_311 (and act_load_at_depot@1 act_make_treatment@1 .def_310))) (let ((.def_312 (not .def_311))) (let ((.def_313 (and act_load@1 act_move@1 .def_310))) (let ((.def_314 (not .def_313))) (let ((.def_315 (and act_load@1 act_unload_at_depot@1 .def_310))) (let ((.def_316 (not .def_315))) (let ((.def_317 (and act_make_treatment@1 act_move@1 .def_310))) (let ((.def_318 (not .def_317))) (let ((.def_319 (and act_load_at_depot@1 act_unload_at_depot@1 .def_310))) (let ((.def_320 (not .def_319))) (let ((.def_321 (+ t@1 dur_make_treatment@1))) (let ((.def_322 (= .def_321 t@1))) (let ((.def_323 (and act_make_treatment@1 act_load@1 .def_322))) (let ((.def_324 (not .def_323))) (let ((.def_325 (= .def_171 t@1))) (let ((.def_326 (and act_make_treatment@1 act_load@1 .def_325))) (let ((.def_327 (not .def_326))) (let ((.def_328 (and act_make_treatment@1 act_unload_at_depot@1 .def_310))) (let ((.def_329 (not .def_328))) (let ((.def_330 (and act_move@1 act_unload_at_depot@1 .def_310))) (let ((.def_331 (not .def_330))) (let ((.def_332 (and act_load_at_depot@1 act_load@1 .def_310))) (let ((.def_333 (not .def_332))) (let ((.def_334 (and act_make_treatment@1 act_load@1 .def_310))) (let ((.def_335 (not .def_334))) (let ((.def_336 (and act_load_at_depot@1 act_move@1 .def_310))) (let ((.def_337 (not .def_336))) (let ((.def_338 (and .def_337 .def_335 .def_333 .def_331 .def_329 .def_327 .def_324 .def_320 .def_318 .def_316 .def_314 .def_312))) (let ((.def_339 (<= 0.0 t@1))) (let ((.def_340 (and .def_23 .def_14 .def_25))) (let ((.def_341 (ite .def_340 fluent_ready_plt0_p1_t0@1 fluent_ready_plt0_p0_t0@1))) (let ((.def_342 (and .def_23 .def_13 .def_25))) (let ((.def_343 (ite .def_342 fluent_ready_plt0_p2_t0@1 .def_341))) (let ((.def_344 (and .def_23 .def_12 .def_25))) (let ((.def_345 (ite .def_344 fluent_ready_plt0_p3_t0@1 .def_343))) (let ((.def_346 (and .def_23 .def_15 .def_24))) (let ((.def_347 (ite .def_346 fluent_ready_plt0_p0_t1@1 .def_345))) (let ((.def_348 (and .def_23 .def_14 .def_24))) (let ((.def_349 (ite .def_348 fluent_ready_plt0_p1_t1@1 .def_347))) (let ((.def_350 (and .def_23 .def_13 .def_24))) (let ((.def_351 (ite .def_350 fluent_ready_plt0_p2_t1@1 .def_349))) (let ((.def_352 (and .def_23 .def_12 .def_24))) (let ((.def_353 (ite .def_352 fluent_ready_plt0_p3_t1@1 .def_351))) (let ((.def_354 (= .def_353 true))) (let ((.def_355 (=> true .def_354))) (let ((.def_356 (and .def_172 .def_355))) (let ((.def_357 (= fluent_robot_free_r0@1 true))) (let ((.def_358 (=> true .def_357))) (let ((.def_359 (and .def_23 .def_14))) (let ((.def_360 (ite .def_359 fluent_pallet_at_plt0_p1@1 fluent_pallet_at_plt0_p0@1))) (let ((.def_361 (and .def_23 .def_13))) (let ((.def_362 (ite .def_361 fluent_pallet_at_plt0_p2@1 .def_360))) (let ((.def_363 (and .def_23 .def_12))) (let ((.def_364 (ite .def_363 fluent_pallet_at_plt0_p3@1 .def_362))) (let ((.def_365 (= .def_364 true))) (let ((.def_366 (=> true .def_365))) (let ((.def_367 (= fluent_robot_has_r0_plt0@1 false))) (let ((.def_368 (=> true .def_367))) (let ((.def_369 (ite .def_14 fluent_position_free_p1@1 fluent_position_free_p0@1))) (let ((.def_370 (ite .def_13 fluent_position_free_p2@1 .def_369))) (let ((.def_371 (ite .def_12 fluent_position_free_p3@1 .def_370))) (let ((.def_372 (= .def_371 false))) (let ((.def_373 (=> true .def_372))) (let ((.def_374 (and .def_310 .def_373 .def_368 .def_366 .def_358))) (let ((.def_375 (ite .def_14 fluent_position_free_p1@0 fluent_position_free_p0@0))) (let ((.def_376 (ite .def_13 fluent_position_free_p2@0 .def_375))) (let ((.def_377 (ite .def_12 fluent_position_free_p3@0 .def_376))) (let ((.def_378 (and .def_23 .def_24))) (let ((.def_379 (ite .def_378 fluent_treated_plt0_t1@0 fluent_treated_plt0_t0@0))) (let ((.def_380 (and .def_379 .def_377))) (let ((.def_381 (<= .def_321 t@1))) (let ((.def_382 (< (- 1.0) .def_321))) (let ((.def_383 (and .def_382 .def_381))) (let ((.def_384 (=> .def_383 .def_380))) (let ((.def_385 (not .def_379))) (let ((.def_386 (and .def_22 .def_14))) (let ((.def_387 (ite .def_386 fluent_robot_at_r0_p1@0 fluent_robot_at_r0_p0@0))) (let ((.def_388 (and .def_22 .def_13))) (let ((.def_389 (ite .def_388 fluent_robot_at_r0_p2@0 .def_387))) (let ((.def_390 (and .def_22 .def_12))) (let ((.def_391 (ite .def_390 fluent_robot_at_r0_p3@0 .def_389))) (let ((.def_392 (and .def_14 .def_25))) (let ((.def_393 (ite .def_392 false true))) (let ((.def_394 (and .def_13 .def_25))) (let ((.def_395 (ite .def_394 false .def_393))) (let ((.def_396 (and .def_12 .def_25))) (let ((.def_397 (ite .def_396 false .def_395))) (let ((.def_398 (and .def_15 .def_24))) (let ((.def_399 (ite .def_398 false .def_397))) (let ((.def_400 (and .def_14 .def_24))) (let ((.def_401 (ite .def_400 true .def_399))) (let ((.def_402 (and .def_13 .def_24))) (let ((.def_403 (ite .def_402 false .def_401))) (let ((.def_404 (and .def_12 .def_24))) (let ((.def_405 (ite .def_404 false .def_403))) (let ((.def_406 (and .def_405 .def_377 .def_391 fluent_robot_has_r0_plt0@0 .def_385))) (let ((.def_407 (<= t@1 t@1))) (let ((.def_408 (< (- 1.0) t@1))) (let ((.def_409 (and .def_408 .def_407))) (let ((.def_410 (=> .def_409 .def_406))) (let ((.def_411 (<= dur_make_treatment@1 20.0))) (let ((.def_412 (<= 20.0 dur_make_treatment@1))) (let ((.def_413 (and .def_412 .def_411))) (let ((.def_414 (and .def_413 .def_381 .def_410 .def_384 .def_374 .def_356))) (let ((.def_415 (=> act_make_treatment@1 .def_414))) (let ((.def_416 (and .def_28 .def_41))) (let ((.def_417 (ite .def_416 fluent_pallet_at_plt0_p1@1 fluent_pallet_at_plt0_p0@1))) (let ((.def_418 (and .def_28 .def_40))) (let ((.def_419 (ite .def_418 fluent_pallet_at_plt0_p2@1 .def_417))) (let ((.def_420 (and .def_28 .def_39))) (let ((.def_421 (ite .def_420 fluent_pallet_at_plt0_p3@1 .def_419))) (let ((.def_422 (= .def_421 true))) (let ((.def_423 (=> true .def_422))) (let ((.def_424 (and .def_35 .def_41))) (let ((.def_425 (ite .def_424 fluent_robot_at_r0_p1@0 fluent_robot_at_r0_p0@0))) (let ((.def_426 (and .def_35 .def_40))) (let ((.def_427 (ite .def_426 fluent_robot_at_r0_p2@0 .def_425))) (let ((.def_428 (and .def_35 .def_39))) (let ((.def_429 (ite .def_428 fluent_robot_at_r0_p3@0 .def_427))) (let ((.def_430 (ite .def_41 false false))) (let ((.def_431 (ite .def_40 false .def_430))) (let ((.def_432 (ite .def_39 true .def_431))) (let ((.def_433 (and .def_432 .def_429 fluent_robot_has_r0_plt0@0 .def_423 .def_358 .def_368))) (let ((.def_434 (=> act_unload_at_depot@1 .def_433))) (let ((.def_435 (and .def_46 .def_3))) (let ((.def_436 (ite .def_435 fluent_pallet_at_plt0_p1@1 fluent_pallet_at_plt0_p0@1))) (let ((.def_437 (and .def_46 .def_2))) (let ((.def_438 (ite .def_437 fluent_pallet_at_plt0_p2@1 .def_436))) (let ((.def_439 (and .def_46 .def_1))) (let ((.def_440 (ite .def_439 fluent_pallet_at_plt0_p3@1 .def_438))) (let ((.def_441 (= .def_440 false))) (let ((.def_442 (=> true .def_441))) (let ((.def_443 (= fluent_robot_has_r0_plt0@1 true))) (let ((.def_444 (=> true .def_443))) (let ((.def_445 (= fluent_robot_free_r0@1 false))) (let ((.def_446 (=> true .def_445))) (let ((.def_447 (ite .def_435 fluent_pallet_at_plt0_p1@0 fluent_pallet_at_plt0_p0@0))) (let ((.def_448 (ite .def_437 fluent_pallet_at_plt0_p2@0 .def_447))) (let ((.def_449 (ite .def_439 fluent_pallet_at_plt0_p3@0 .def_448))) (let ((.def_450 (and .def_0 .def_3))) (let ((.def_451 (ite .def_450 fluent_robot_at_r0_p1@0 fluent_robot_at_r0_p0@0))) (let ((.def_452 (and .def_0 .def_2))) (let ((.def_453 (ite .def_452 fluent_robot_at_r0_p2@0 .def_451))) (let ((.def_454 (and .def_0 .def_1))) (let ((.def_455 (ite .def_454 fluent_robot_at_r0_p3@0 .def_453))) (let ((.def_456 (ite .def_3 false false))) (let ((.def_457 (ite .def_2 false .def_456))) (let ((.def_458 (ite .def_1 true .def_457))) (let ((.def_459 (and .def_458 .def_455 fluent_robot_free_r0@0 .def_449 .def_446 .def_444 .def_442))) (let ((.def_460 (=> act_load_at_depot@1 .def_459))) (let ((.def_461 (ite .def_32 fluent_position_free_p1@1 fluent_position_free_p0@1))) (let ((.def_462 (ite .def_31 fluent_position_free_p2@1 .def_461))) (let ((.def_463 (ite .def_30 fluent_position_free_p3@1 .def_462))) (let ((.def_464 (= .def_463 true))) (let ((.def_465 (=> true .def_464))) (let ((.def_466 (and .def_29 .def_36))) (let ((.def_467 (ite .def_466 fluent_treated_plt0_t1@1 fluent_treated_plt0_t0@1))) (let ((.def_468 (= .def_467 true))) (let ((.def_469 (=> true .def_468))) (let ((.def_470 (and .def_29 .def_32))) (let ((.def_471 (ite .def_470 fluent_pallet_at_plt0_p1@1 fluent_pallet_at_plt0_p0@1))) (let ((.def_472 (and .def_29 .def_31))) (let ((.def_473 (ite .def_472 fluent_pallet_at_plt0_p2@1 .def_471))) (let ((.def_474 (and .def_29 .def_30))) (let ((.def_475 (ite .def_474 fluent_pallet_at_plt0_p3@1 .def_473))) (let ((.def_476 (= .def_475 false))) (let ((.def_477 (=> true .def_476))) (let ((.def_478 (and .def_29 .def_32 .def_37))) (let ((.def_479 (ite .def_478 fluent_ready_plt0_p1_t0@1 fluent_ready_plt0_p0_t0@1))) (let ((.def_480 (and .def_29 .def_31 .def_37))) (let ((.def_481 (ite .def_480 fluent_ready_plt0_p2_t0@1 .def_479))) (let ((.def_482 (and .def_29 .def_30 .def_37))) (let ((.def_483 (ite .def_482 fluent_ready_plt0_p3_t0@1 .def_481))) (let ((.def_484 (and .def_29 .def_33 .def_36))) (let ((.def_485 (ite .def_484 fluent_ready_plt0_p0_t1@1 .def_483))) (let ((.def_486 (and .def_29 .def_32 .def_36))) (let ((.def_487 (ite .def_486 fluent_ready_plt0_p1_t1@1 .def_485))) (let ((.def_488 (and .def_29 .def_31 .def_36))) (let ((.def_489 (ite .def_488 fluent_ready_plt0_p2_t1@1 .def_487))) (let ((.def_490 (and .def_29 .def_30 .def_36))) (let ((.def_491 (ite .def_490 fluent_ready_plt0_p3_t1@1 .def_489))) (let ((.def_492 (= .def_491 false))) (let ((.def_493 (=> true .def_492))) (let ((.def_494 (ite .def_470 fluent_pallet_at_plt0_p1@0 fluent_pallet_at_plt0_p0@0))) (let ((.def_495 (ite .def_472 fluent_pallet_at_plt0_p2@0 .def_494))) (let ((.def_496 (ite .def_474 fluent_pallet_at_plt0_p3@0 .def_495))) (let ((.def_497 (and .def_27 .def_32))) (let ((.def_498 (ite .def_497 fluent_robot_at_r0_p1@0 fluent_robot_at_r0_p0@0))) (let ((.def_499 (and .def_27 .def_31))) (let ((.def_500 (ite .def_499 fluent_robot_at_r0_p2@0 .def_498))) (let ((.def_501 (and .def_27 .def_30))) (let ((.def_502 (ite .def_501 fluent_robot_at_r0_p3@0 .def_500))) (let ((.def_503 (ite .def_478 fluent_ready_plt0_p1_t0@0 fluent_ready_plt0_p0_t0@0))) (let ((.def_504 (ite .def_480 fluent_ready_plt0_p2_t0@0 .def_503))) (let ((.def_505 (ite .def_482 fluent_ready_plt0_p3_t0@0 .def_504))) (let ((.def_506 (ite .def_484 fluent_ready_plt0_p0_t1@0 .def_505))) (let ((.def_507 (ite .def_486 fluent_ready_plt0_p1_t1@0 .def_506))) (let ((.def_508 (ite .def_488 fluent_ready_plt0_p2_t1@0 .def_507))) (let ((.def_509 (ite .def_490 fluent_ready_plt0_p3_t1@0 .def_508))) (let ((.def_510 (and .def_509 .def_502 fluent_robot_free_r0@0 .def_496 .def_446 .def_493 .def_477 .def_444 .def_469 .def_465))) (let ((.def_511 (=> act_load@1 .def_510))) (let ((.def_512 (and .def_9 .def_20))) (let ((.def_513 (ite .def_512 1.0 0.0))) (let ((.def_514 (and .def_8 .def_20))) (let ((.def_515 (ite .def_514 2.0 .def_513))) (let ((.def_516 (and .def_7 .def_20))) (let ((.def_517 (ite .def_516 3.0 .def_515))) (let ((.def_518 (and .def_10 .def_19))) (let ((.def_519 (ite .def_518 1.0 .def_517))) (let ((.def_520 (and .def_9 .def_19))) (let ((.def_521 (ite .def_520 0.0 .def_519))) (let ((.def_522 (and .def_8 .def_19))) (let ((.def_523 (ite .def_522 1.0 .def_521))) (let ((.def_524 (and .def_7 .def_19))) (let ((.def_525 (ite .def_524 2.0 .def_523))) (let ((.def_526 (and .def_10 .def_18))) (let ((.def_527 (ite .def_526 2.0 .def_525))) (let ((.def_528 (and .def_9 .def_18))) (let ((.def_529 (ite .def_528 1.0 .def_527))) (let ((.def_530 (and .def_8 .def_18))) (let ((.def_531 (ite .def_530 0.0 .def_529))) (let ((.def_532 (and .def_7 .def_18))) (let ((.def_533 (ite .def_532 1.0 .def_531))) (let ((.def_534 (and .def_10 .def_17))) (let ((.def_535 (ite .def_534 3.0 .def_533))) (let ((.def_536 (and .def_9 .def_17))) (let ((.def_537 (ite .def_536 2.0 .def_535))) (let ((.def_538 (and .def_8 .def_17))) (let ((.def_539 (ite .def_538 1.0 .def_537))) (let ((.def_540 (and .def_7 .def_17))) (let ((.def_541 (ite .def_540 0.0 .def_539))) (let ((.def_542 (- fluent_battery_level_r0@0 .def_541))) (let ((.def_543 (= fluent_battery_level_r0@1 .def_542))) (let ((.def_544 (=> true .def_543))) (let ((.def_545 (and .def_6 .def_9))) (let ((.def_546 (ite .def_545 fluent_robot_at_r0_p1@1 fluent_robot_at_r0_p0@1))) (let ((.def_547 (and .def_6 .def_8))) (let ((.def_548 (ite .def_547 fluent_robot_at_r0_p2@1 .def_546))) (let ((.def_549 (and .def_6 .def_7))) (let ((.def_550 (ite .def_549 fluent_robot_at_r0_p3@1 .def_548))) (let ((.def_551 (= .def_550 false))) (let ((.def_552 (=> true .def_551))) (let ((.def_553 (and .def_6 .def_19))) (let ((.def_554 (ite .def_553 fluent_robot_at_r0_p1@1 fluent_robot_at_r0_p0@1))) (let ((.def_555 (and .def_6 .def_18))) (let ((.def_556 (ite .def_555 fluent_robot_at_r0_p2@1 .def_554))) (let ((.def_557 (and .def_6 .def_17))) (let ((.def_558 (ite .def_557 fluent_robot_at_r0_p3@1 .def_556))) (let ((.def_559 (= .def_558 true))) (let ((.def_560 (=> true .def_559))) (let ((.def_561 (<= .def_541 fluent_battery_level_r0@0))) (let ((.def_562 (ite .def_545 fluent_robot_at_r0_p1@0 fluent_robot_at_r0_p0@0))) (let ((.def_563 (ite .def_547 fluent_robot_at_r0_p2@0 .def_562))) (let ((.def_564 (ite .def_549 fluent_robot_at_r0_p3@0 .def_563))) (let ((.def_565 (= parameter_move_frompos@1 parameter_move_topos@1))) (let ((.def_566 (not .def_565))) (let ((.def_567 (and .def_566 .def_564 .def_561 .def_560 .def_552 .def_544))) (let ((.def_568 (=> act_move@1 .def_567))) (let ((.def_569 (<= fluent_battery_level_r0@0 100.0))) (let ((.def_570 (<= 0.0 fluent_battery_level_r0@0))) (let ((.def_571 (= false false))) (let ((.def_572 (= fluent_pallet_at_plt0_p2@0 false))) (let ((.def_573 (= fluent_pallet_at_plt0_p1@0 false))) (let ((.def_574 (= fluent_pallet_at_plt0_p0@0 false))) (let ((.def_575 (= fluent_treated_plt0_t1@0 false))) (let ((.def_576 (= fluent_treated_plt0_t0@0 false))) (let ((.def_577 (= fluent_ready_plt0_p3_t1@0 false))) (let ((.def_578 (= fluent_ready_plt0_p2_t1@0 false))) (let ((.def_579 (= fluent_ready_plt0_p1_t1@0 false))) (let ((.def_580 (= fluent_ready_plt0_p0_t1@0 false))) (let ((.def_581 (= fluent_ready_plt0_p3_t0@0 false))) (let ((.def_582 (= fluent_ready_plt0_p2_t0@0 false))) (let ((.def_583 (= fluent_ready_plt0_p1_t0@0 false))) (let ((.def_584 (= fluent_ready_plt0_p0_t0@0 false))) (let ((.def_585 (= fluent_robot_has_r0_plt0@0 false))) (let ((.def_586 (= fluent_robot_at_r0_p2@0 false))) (let ((.def_587 (= fluent_robot_at_r0_p1@0 false))) (let ((.def_588 (= fluent_robot_at_r0_p0@0 false))) (let ((.def_589 (= true true))) (let ((.def_590 (= fluent_position_free_p3@0 true))) (let ((.def_591 (= fluent_position_free_p2@0 true))) (let ((.def_592 (= fluent_position_free_p1@0 true))) (let ((.def_593 (= fluent_position_free_p0@0 true))) (let ((.def_594 (= 0.0 0.0))) (let ((.def_595 (= 1.0 1.0))) (let ((.def_596 (= 2.0 2.0))) (let ((.def_597 (= 3.0 3.0))) (let ((.def_598 (= fluent_battery_level_r0@0 8.0))) (let ((.def_599 (= fluent_pallet_at_plt0_p3@0 true))) (let ((.def_600 (= fluent_robot_free_r0@0 true))) (let ((.def_601 (= fluent_robot_at_r0_p3@0 true))) (let ((.def_602 (and .def_601 .def_600 .def_599 .def_598 .def_594 .def_595 .def_595 .def_596 .def_596 .def_597 .def_597 .def_594 .def_595 .def_595 .def_596 .def_596 .def_594 .def_595 .def_595 .def_594 .def_589 .def_593 .def_592 .def_591 .def_590 .def_589 .def_589 .def_588 .def_587 .def_586 .def_585 .def_584 .def_583 .def_582 .def_581 .def_580 .def_579 .def_578 .def_577 .def_576 .def_575 .def_574 .def_573 .def_572 .def_571 .def_571 .def_571 .def_571 .def_571 .def_571 .def_571 .def_571 .def_571 .def_570 .def_569))) (let ((.def_603 (and .def_602 .def_568 .def_511 .def_460 .def_434 .def_415 .def_339 .def_338 true .def_309 .def_46 .def_45 .def_44 .def_43 .def_38 .def_35 .def_34 .def_29 .def_28 .def_27 .def_26 .def_23 .def_22 .def_21 .def_16 .def_11 .def_6 .def_5 .def_0 true))) .def_603)))))))))))))))))))))))))))))))))))))))))))))))))))))))))))))))))))))))))))))))))))))))))))))))))))))))))))))))))))))))))))))))))))))))))))))))))))))))))))))))))))))))))))))))))))))))))))))))))))))))))))))))))))))))))))))))))))))))))))))))))))))))))))))))))))))))))))))))))))))))))))))))))))))))))))))))))))))))))))))))))))))))))))))))))))))))))))))))))))))))))))))))))))))))))))))))))))))))))))))))))))))))))))))))))))))))))))))))))))))))))))))))))))))))))))))))))))))))))))))))))))))))))))))))))))))))))))))))))))))))))))))))))))))))))))))))))))))))))))))))))))))))))))))))))))))))))))))))))))))))))))))
(check-sat)


